0	4	11
1	42	1
2	9	2
3	26	6
4	14	15
5	4	5
6	30	0
7	36	2
8	54	5
9	41	9
10	49	0
11	8	14
12	56	6
13	12	9
14	26	10
15	48	19
16	56	9
17	54	8
18	31	3
19	36	2
20	30	1
21	5	2
22	49	15
23	34	2
24	23	5
25	23	15
